\ Model subproblem_model
\ LP format - for model browsing. Use MPS format to capture full model detail.
Maximize
  _eta
Subject To
 R0: _z[9] + _z[7] <= 1
 R1: _z[9] + _z[7] <= 1
 R2: _z[9] + _z[6] + _z[1] <= 2
 R3: _z[9] + _z[6] + _z[2] <= 2
 R4: _z[9] + _z[6] + _z[3] <= 2
 R5: _z[9] + _z[6] + _z[5] <= 2
 R6: _z[9] + _z[6] + _z[8] <= 2
 R7: _z[9] + _z[2] + _z[1] <= 2
 R8: _z[9] + _z[2] + _z[4] <= 2
 R9: _z[9] + _z[2] + _z[5] <= 2
 R10: _z[9] + _z[2] + _z[10] <= 2
 R11: _z[9] + _z[10] + _z[1] <= 2
 R12: _z[9] + _z[10] + _z[3] <= 2
 R13: _z[9] + _z[10] + _z[5] <= 2
 R14: _z[9] + _z[10] + _z[8] <= 2
 R15: _z[9] + _z[5] + _z[3] <= 2
 R16: _z[9] + _z[5] + _z[4] <= 2
 R17: _z[9] + _z[5] + _z[8] <= 2
 R18: _z[9] + _z[1] + _z[3] <= 2
 R19: _z[9] + _z[4] + _z[3] <= 2
 R20: _z[6] + _z[2] + _z[3] <= 2
 R21: _z[6] + _z[2] + _z[4] <= 2
 R22: _z[6] + _z[2] + _z[7] <= 2
 R23: _z[6] + _z[2] + _z[8] <= 2
 R24: _z[6] + _z[2] + _z[10] <= 2
 R25: _z[6] + _z[10] + _z[1] <= 2
 R26: _z[6] + _z[10] + _z[5] <= 2
 R27: _z[6] + _z[5] + _z[3] <= 2
 R28: _z[6] + _z[5] + _z[4] <= 2
 R29: _z[6] + _z[5] + _z[7] <= 2
 R30: _z[6] + _z[5] + _z[8] <= 2
 R31: _z[6] + _z[1] + _z[3] <= 2
 R32: _z[6] + _z[1] + _z[7] <= 2
 R33: _z[6] + _z[4] + _z[3] <= 2
 R34: _z[6] + _z[4] + _z[7] <= 2
 R35: _z[6] + _z[3] + _z[7] <= 2
 R36: _z[2] + _z[10] + _z[3] <= 2
 R37: _z[2] + _z[10] + _z[7] <= 2
 R38: _z[2] + _z[10] + _z[8] <= 2
 R39: _z[2] + _z[5] + _z[3] <= 2
 R40: _z[2] + _z[5] + _z[4] <= 2
 R41: _z[2] + _z[5] + _z[7] <= 2
 R42: _z[2] + _z[5] + _z[8] <= 2
 R43: _z[2] + _z[1] + _z[3] <= 2
 R44: _z[2] + _z[1] + _z[7] <= 2
 R45: _z[2] + _z[4] + _z[3] <= 2
 R46: _z[2] + _z[4] + _z[7] <= 2
 R47: _z[2] + _z[8] + _z[7] <= 2
 R48: _z[2] + _z[3] + _z[7] <= 2
 R49: _z[10] + _z[5] + _z[3] <= 2
 R50: _z[10] + _z[5] + _z[4] <= 2
 R51: _z[10] + _z[5] + _z[7] <= 2
 R52: _z[10] + _z[5] + _z[8] <= 2
 R53: _z[10] + _z[1] + _z[3] <= 2
 R54: _z[10] + _z[1] + _z[7] <= 2
 R55: _z[10] + _z[4] + _z[3] <= 2
 R56: _z[10] + _z[4] + _z[7] <= 2
 R57: _z[10] + _z[8] + _z[3] <= 2
 R58: _z[10] + _z[3] + _z[7] <= 2
 R59: _z[5] + _z[1] + _z[3] <= 2
 R60: _z[5] + _z[1] + _z[7] <= 2
 R61: _z[5] + _z[4] + _z[3] <= 2
 R62: _z[5] + _z[4] + _z[7] <= 2
 R63: _z[5] + _z[8] + _z[7] <= 2
 R64: _z[5] + _z[3] + _z[7] <= 2
 R65: _z[1] + _z[3] + _z[7] <= 2
 R66: _z[8] + _z[3] + _z[7] <= 2
 R67: _z[5] + _z[1] + _z[4] + _z[8] <= 3
 R68: _z[1] + _z[4] + _z[8] + _z[7] <= 3
 R69: _z[1] + _z[4] + _z[8] + _z[3] <= 3
 R70: _eta - 4161 _z[9] - 3306 _z[6] - 6252 _z[2] - 5450 _z[10]
   - 7470 _z[5] - 2602 _z[1] - 5275 _z[4] - 8027 _z[8] - 4404 _z[3]
   - 2272 _z[7] <= 0
Bounds
 _eta free
Binaries
 _z[9] _z[6] _z[2] _z[10] _z[5] _z[1] _z[4] _z[8] _z[3] _z[7]
End
